************************************************************************
file with basedata            : mm44_.bas
initial value random generator: 1233221904
************************************************************************
projects                      :  1
jobs (incl. supersource/sink ):  12
horizon                       :  95
RESOURCES
  - renewable                 :  2   R
  - nonrenewable              :  2   N
  - doubly constrained        :  0   D
************************************************************************
PROJECT INFORMATION:
pronr.  #jobs rel.date duedate tardcost  MPM-Time
    1     10      0       19        1       19
************************************************************************
PRECEDENCE RELATIONS:
jobnr.    #modes  #successors   successors
   0        1          3           1   2   3
   1        3          1           9
   2        3          3           4   5   6
   3        3          2           4   5
   4        3          1           9
   5        3          1           8
   6        3          3           7   8  10
   7        3          1           9
   8        3          1          11
   9        3          1          11
  10        3          1          11
  11        1          0        
************************************************************************
REQUESTS/DURATIONS:
jobnr. mode duration  R 1  R 2  R 3  R 4  E(W 1)  E(W 2)
------------------------------------------------------------------------
  0      1     0       0    0    0    0     0       0
  1      1     7       5    4    8    0    63      56
  2      1     3       5    9    0    8    42      24
  3      1     4       6    6    0    7    48      28
  4      1     4       8    7    4    0    60      16
  5      1     4       8    6    0    9    56      36
  6      1     8      10    6    5    0    128      40
  7      1     6       9    7    7    0    96      42
  8      1     3       5    8    9    0    39      27
  9      1     2      10   10    0    3    40       6
 10      1     3       8    6    7    0    42      21
 11      1     0       0    0    0    0     0       0
************************************************************************
RESOURCEAVAILABILITIES:
  R 1  R 2
   34   102
************************************************************************
RESOURCE LIMITS:
jobnr.  l(R 1)  u(R 1)  l(R 2)  u(R 2)
------------------------------------------------------------------------
  0        0       0       0       0
  1        5       9       4       8
  2        8      14       4       8
  3        6      12       4       7
  4        8      15       2       4
  5        7      14       5       9
  6        8      16       3       5
  7        9      16       4       7
  8        7      13       5       9
  9       10      20       2       3
 10        7      14       4       7
 11        0       0       0       0
************************************************************************
SCENARIOS:
------------------------------------------------------------------------
RESOURCE k = 1
s = 1: (0, 49, 29, 68, 85, 43, 194, 72, 33, 43, 50, 0)
s = 2: (0, 78, 56, 37, 39, 110, 134, 108, 39, 34, 38, 0)
s = 3: (0, 63, 53, 45, 89, 46, 98, 64, 54, 41, 29, 0)
s = 4: (0, 65, 44, 28, 35, 70, 78, 175, 33, 69, 52, 0)
s = 5: (0, 36, 35, 38, 69, 40, 147, 78, 43, 60, 40, 0)
s = 6: (0, 38, 42, 79, 38, 51, 121, 103, 42, 32, 38, 0)
s = 7: (0, 37, 22, 35, 53, 60, 116, 134, 47, 23, 40, 0)
s = 8: (0, 50, 51, 54, 53, 42, 118, 95, 41, 29, 27, 0)
s = 9: (0, 60, 31, 42, 48, 58, 115, 122, 42, 35, 24, 0)
s = 10: (0, 46, 35, 48, 82, 81, 75, 121, 47, 42, 52, 0)
s = 11: (0, 45, 44, 38, 49, 61, 183, 97, 50, 53, 64, 0)
s = 12: (0, 50, 53, 29, 39, 50, 110, 132, 35, 39, 43, 0)
s = 13: (0, 77, 35, 34, 100, 72, 158, 120, 52, 39, 45, 0)
s = 14: (0, 44, 63, 38, 79, 44, 121, 152, 54, 23, 61, 0)
s = 15: (0, 71, 62, 43, 59, 79, 92, 112, 25, 32, 76, 0)
s = 16: (0, 34, 70, 43, 105, 57, 135, 67, 33, 50, 43, 0)
s = 17: (0, 58, 32, 55, 49, 58, 126, 85, 36, 26, 35, 0)
s = 18: (0, 42, 25, 44, 96, 62, 72, 55, 29, 35, 48, 0)
s = 19: (0, 65, 27, 40, 63, 52, 69, 156, 43, 36, 50, 0)
s = 20: (0, 54, 49, 55, 80, 89, 192, 74, 43, 39, 22, 0)
s = 21: (0, 52, 36, 31, 63, 39, 83, 111, 73, 32, 34, 0)
s = 22: (0, 48, 59, 29, 87, 35, 102, 75, 65, 46, 41, 0)
s = 23: (0, 91, 47, 32, 39, 56, 112, 79, 31, 52, 34, 0)
s = 24: (0, 70, 28, 40, 81, 58, 106, 70, 35, 33, 41, 0)
s = 25: (0, 43, 33, 50, 36, 46, 104, 83, 40, 50, 37, 0)
s = 26: (0, 52, 41, 35, 54, 56, 109, 106, 31, 34, 34, 0)
s = 27: (0, 59, 38, 60, 57, 82, 128, 56, 50, 24, 63, 0)
s = 28: (0, 83, 38, 62, 45, 50, 149, 115, 24, 42, 43, 0)
s = 29: (0, 58, 52, 41, 70, 47, 120, 57, 36, 46, 34, 0)
s = 30: (0, 56, 45, 57, 57, 60, 175, 83, 49, 34, 51, 0)
s = 31: (0, 40, 30, 53, 82, 55, 159, 70, 28, 36, 47, 0)
s = 32: (0, 53, 31, 42, 69, 59, 154, 89, 31, 32, 44, 0)
s = 33: (0, 49, 36, 37, 53, 64, 210, 105, 30, 47, 57, 0)
s = 34: (0, 49, 27, 33, 73, 58, 96, 102, 44, 49, 31, 0)
s = 35: (0, 54, 45, 58, 92, 62, 133, 87, 47, 24, 55, 0)
s = 36: (0, 92, 72, 41, 44, 63, 103, 131, 49, 30, 71, 0)
s = 37: (0, 62, 46, 72, 61, 56, 118, 89, 59, 45, 56, 0)
s = 38: (0, 91, 38, 45, 39, 69, 168, 126, 28, 43, 27, 0)
s = 39: (0, 54, 29, 32, 44, 67, 107, 68, 50, 42, 57, 0)
s = 40: (0, 43, 35, 56, 43, 55, 133, 116, 50, 56, 55, 0)
s = 41: (0, 62, 62, 66, 84, 49, 176, 90, 39, 25, 32, 0)
s = 42: (0, 78, 30, 47, 68, 40, 157, 60, 41, 23, 43, 0)
s = 43: (0, 74, 54, 45, 49, 52, 116, 102, 49, 36, 35, 0)
s = 44: (0, 52, 44, 45, 62, 74, 108, 97, 31, 33, 55, 0)
s = 45: (0, 55, 33, 29, 65, 55, 132, 115, 39, 41, 58, 0)
s = 46: (0, 70, 62, 45, 44, 72, 114, 63, 28, 29, 32, 0)
s = 47: (0, 64, 44, 30, 83, 60, 92, 143, 36, 47, 59, 0)
s = 48: (0, 55, 43, 51, 42, 34, 130, 62, 35, 53, 29, 0)
s = 49: (0, 77, 27, 65, 79, 55, 172, 96, 38, 38, 24, 0)
s = 50: (0, 113, 41, 44, 62, 59, 92, 128, 34, 34, 32, 0)
s = 51: (0, 87, 36, 38, 39, 69, 132, 75, 69, 43, 45, 0)
s = 52: (0, 102, 48, 39, 63, 75, 75, 100, 32, 39, 49, 0)
s = 53: (0, 50, 26, 26, 65, 30, 98, 81, 39, 48, 35, 0)
s = 54: (0, 53, 40, 61, 51, 94, 75, 106, 57, 61, 38, 0)
s = 55: (0, 65, 41, 72, 68, 51, 121, 91, 24, 45, 34, 0)
s = 56: (0, 66, 34, 28, 90, 56, 143, 81, 45, 36, 30, 0)
s = 57: (0, 84, 56, 49, 52, 38, 126, 67, 42, 46, 45, 0)
s = 58: (0, 37, 59, 27, 55, 34, 93, 68, 33, 32, 40, 0)
s = 59: (0, 85, 44, 43, 78, 57, 139, 121, 43, 27, 30, 0)
s = 60: (0, 41, 45, 65, 73, 85, 96, 131, 42, 36, 56, 0)
s = 61: (0, 49, 46, 61, 42, 50, 221, 79, 50, 44, 42, 0)
s = 62: (0, 74, 55, 35, 73, 49, 124, 58, 40, 45, 33, 0)
s = 63: (0, 58, 39, 46, 60, 47, 186, 68, 37, 35, 62, 0)
s = 64: (0, 76, 43, 33, 77, 52, 138, 68, 39, 29, 32, 0)
s = 65: (0, 62, 38, 34, 49, 44, 99, 105, 43, 58, 53, 0)
s = 66: (0, 82, 40, 55, 49, 33, 192, 103, 40, 45, 64, 0)
s = 67: (0, 46, 58, 69, 58, 51, 75, 73, 42, 32, 71, 0)
s = 68: (0, 56, 32, 41, 59, 34, 167, 56, 33, 38, 29, 0)
s = 69: (0, 110, 27, 47, 38, 68, 98, 137, 37, 41, 33, 0)
s = 70: (0, 55, 47, 30, 61, 34, 166, 133, 43, 27, 33, 0)
s = 71: (0, 66, 43, 69, 65, 56, 171, 82, 52, 38, 29, 0)
s = 72: (0, 80, 28, 50, 69, 47, 174, 74, 37, 34, 55, 0)
s = 73: (0, 75, 41, 35, 45, 65, 163, 132, 68, 23, 56, 0)
s = 74: (0, 77, 43, 35, 46, 36, 135, 102, 28, 25, 30, 0)
s = 75: (0, 46, 40, 67, 54, 55, 108, 66, 40, 34, 46, 0)
s = 76: (0, 98, 37, 52, 41, 41, 82, 144, 22, 23, 64, 0)
s = 77: (0, 50, 46, 50, 50, 39, 178, 97, 51, 28, 68, 0)
s = 78: (0, 41, 28, 28, 45, 44, 111, 129, 46, 68, 43, 0)
s = 79: (0, 83, 64, 51, 52, 47, 101, 72, 31, 52, 58, 0)
s = 80: (0, 73, 29, 61, 54, 55, 136, 155, 25, 55, 51, 0)
s = 81: (0, 63, 53, 44, 50, 60, 175, 80, 45, 50, 31, 0)
s = 82: (0, 56, 55, 48, 65, 61, 153, 66, 36, 61, 37, 0)
s = 83: (0, 68, 43, 42, 51, 38, 116, 110, 52, 53, 25, 0)
s = 84: (0, 53, 47, 68, 76, 38, 133, 57, 48, 40, 35, 0)
s = 85: (0, 72, 43, 77, 72, 61, 178, 72, 38, 40, 24, 0)
s = 86: (0, 51, 32, 53, 92, 51, 123, 102, 41, 47, 48, 0)
s = 87: (0, 58, 40, 55, 59, 43, 196, 84, 32, 31, 35, 0)
s = 88: (0, 95, 54, 60, 72, 46, 95, 97, 43, 25, 28, 0)
s = 89: (0, 59, 28, 46, 85, 51, 117, 64, 25, 60, 43, 0)
s = 90: (0, 54, 26, 51, 89, 53, 179, 101, 58, 25, 32, 0)
s = 91: (0, 80, 26, 43, 41, 43, 101, 101, 47, 34, 28, 0)
s = 92: (0, 39, 56, 45, 72, 89, 110, 78, 57, 46, 65, 0)
s = 93: (0, 52, 36, 58, 74, 42, 182, 78, 41, 49, 24, 0)
s = 94: (0, 68, 41, 41, 64, 71, 113, 128, 40, 39, 64, 0)
s = 95: (0, 66, 54, 66, 80, 51, 75, 79, 69, 40, 47, 0)
s = 96: (0, 68, 44, 34, 94, 47, 162, 106, 35, 57, 48, 0)
s = 97: (0, 92, 27, 67, 53, 59, 107, 57, 40, 27, 60, 0)
s = 98: (0, 80, 53, 40, 49, 79, 100, 92, 33, 31, 31, 0)
s = 99: (0, 58, 45, 45, 56, 71, 73, 89, 31, 63, 86, 0)
s = 100: (0, 66, 34, 76, 50, 43, 129, 134, 40, 40, 49, 0)
s = 101: (0, 51, 40, 39, 56, 37, 179, 90, 71, 29, 25, 0)
s = 102: (0, 105, 48, 49, 94, 47, 109, 87, 51, 70, 41, 0)
s = 103: (0, 43, 44, 56, 44, 69, 152, 100, 57, 36, 39, 0)
s = 104: (0, 39, 41, 36, 40, 97, 129, 73, 37, 56, 63, 0)
s = 105: (0, 55, 50, 41, 45, 56, 117, 84, 35, 36, 29, 0)
s = 106: (0, 78, 30, 32, 89, 55, 107, 59, 44, 41, 55, 0)
s = 107: (0, 69, 41, 50, 47, 75, 114, 70, 51, 29, 27, 0)
s = 108: (0, 61, 49, 57, 62, 99, 192, 117, 27, 40, 31, 0)
s = 109: (0, 54, 42, 58, 88, 61, 138, 91, 30, 59, 27, 0)
s = 110: (0, 73, 63, 62, 74, 72, 102, 62, 26, 34, 50, 0)
s = 111: (0, 79, 40, 36, 59, 102, 107, 76, 26, 35, 41, 0)
s = 112: (0, 58, 33, 50, 70, 68, 83, 75, 57, 57, 53, 0)
s = 113: (0, 37, 38, 40, 54, 63, 93, 99, 23, 31, 27, 0)
s = 114: (0, 60, 65, 60, 66, 73, 123, 130, 34, 46, 54, 0)
s = 115: (0, 62, 37, 29, 46, 55, 177, 86, 21, 56, 33, 0)
s = 116: (0, 55, 44, 39, 79, 85, 143, 108, 31, 48, 31, 0)
s = 117: (0, 45, 36, 70, 73, 49, 105, 91, 34, 32, 24, 0)
s = 118: (0, 69, 30, 49, 37, 62, 185, 74, 59, 56, 39, 0)
s = 119: (0, 73, 24, 41, 40, 43, 92, 98, 48, 38, 26, 0)
s = 120: (0, 38, 29, 40, 43, 65, 71, 74, 42, 36, 26, 0)
s = 121: (0, 49, 77, 27, 68, 63, 138, 122, 33, 35, 43, 0)
s = 122: (0, 67, 32, 62, 73, 50, 152, 108, 35, 40, 58, 0)
s = 123: (0, 80, 42, 51, 95, 88, 146, 67, 23, 43, 37, 0)
s = 124: (0, 43, 23, 56, 48, 35, 133, 120, 32, 40, 60, 0)
s = 125: (0, 54, 44, 56, 47, 80, 87, 88, 36, 40, 59, 0)
s = 126: (0, 89, 30, 29, 77, 43, 91, 89, 25, 36, 36, 0)
s = 127: (0, 57, 34, 51, 63, 66, 139, 98, 44, 29, 46, 0)
s = 128: (0, 51, 40, 57, 80, 61, 134, 112, 25, 47, 40, 0)
s = 129: (0, 36, 35, 62, 84, 78, 110, 122, 51, 46, 25, 0)
s = 130: (0, 72, 24, 85, 51, 64, 112, 124, 42, 40, 28, 0)
s = 131: (0, 55, 59, 38, 44, 62, 244, 88, 39, 27, 31, 0)
s = 132: (0, 74, 44, 57, 67, 65, 96, 92, 51, 36, 55, 0)
s = 133: (0, 75, 47, 33, 52, 74, 221, 68, 32, 36, 46, 0)
s = 134: (0, 52, 50, 62, 81, 47, 82, 70, 37, 40, 48, 0)
s = 135: (0, 72, 44, 38, 50, 60, 170, 82, 37, 44, 57, 0)
s = 136: (0, 82, 47, 69, 98, 54, 82, 116, 46, 26, 43, 0)
s = 137: (0, 61, 39, 47, 59, 49, 129, 158, 40, 64, 73, 0)
s = 138: (0, 63, 34, 53, 50, 71, 80, 61, 45, 41, 35, 0)
s = 139: (0, 103, 42, 54, 43, 60, 75, 71, 30, 41, 43, 0)
s = 140: (0, 65, 38, 31, 46, 55, 76, 101, 48, 50, 50, 0)
s = 141: (0, 77, 44, 29, 91, 67, 127, 70, 39, 30, 36, 0)
s = 142: (0, 60, 32, 69, 61, 66, 140, 110, 48, 40, 44, 0)
s = 143: (0, 62, 64, 37, 38, 62, 175, 105, 44, 44, 27, 0)
s = 144: (0, 38, 48, 46, 71, 61, 142, 73, 31, 44, 41, 0)
s = 145: (0, 106, 25, 30, 86, 44, 136, 128, 33, 41, 26, 0)
s = 146: (0, 96, 35, 51, 52, 56, 141, 129, 53, 35, 33, 0)
s = 147: (0, 53, 34, 31, 67, 58, 85, 128, 27, 31, 51, 0)
s = 148: (0, 56, 25, 40, 57, 31, 130, 131, 34, 46, 43, 0)
s = 149: (0, 51, 38, 63, 42, 49, 102, 135, 46, 47, 44, 0)
s = 150: (0, 96, 49, 54, 57, 38, 161, 81, 44, 57, 41, 0)
s = 151: (0, 41, 44, 55, 75, 43, 142, 75, 32, 55, 39, 0)
s = 152: (0, 62, 52, 61, 85, 62, 109, 96, 33, 48, 30, 0)
s = 153: (0, 93, 38, 45, 52, 37, 143, 91, 49, 51, 31, 0)
s = 154: (0, 51, 53, 56, 45, 41, 89, 65, 37, 43, 35, 0)
s = 155: (0, 42, 54, 61, 48, 71, 158, 89, 22, 36, 70, 0)
s = 156: (0, 66, 37, 45, 39, 45, 138, 82, 31, 39, 41, 0)
s = 157: (0, 65, 35, 28, 43, 65, 152, 125, 36, 56, 28, 0)
s = 158: (0, 59, 58, 36, 47, 76, 81, 130, 41, 43, 51, 0)
s = 159: (0, 48, 37, 65, 55, 67, 140, 71, 68, 32, 67, 0)
s = 160: (0, 45, 53, 67, 59, 63, 73, 105, 37, 41, 48, 0)
s = 161: (0, 67, 50, 31, 43, 66, 116, 73, 31, 63, 56, 0)
s = 162: (0, 89, 32, 74, 32, 42, 171, 99, 60, 36, 56, 0)
s = 163: (0, 59, 58, 50, 73, 56, 98, 126, 25, 65, 44, 0)
s = 164: (0, 36, 43, 45, 77, 34, 122, 89, 42, 36, 54, 0)
s = 165: (0, 48, 50, 51, 72, 46, 126, 106, 38, 46, 35, 0)
s = 166: (0, 48, 34, 43, 95, 81, 131, 135, 34, 25, 25, 0)
s = 167: (0, 39, 55, 37, 81, 47, 92, 76, 68, 41, 31, 0)
s = 168: (0, 70, 33, 59, 69, 60, 141, 115, 49, 60, 22, 0)
s = 169: (0, 76, 39, 43, 88, 51, 159, 73, 54, 36, 41, 0)
s = 170: (0, 80, 53, 39, 41, 39, 110, 135, 64, 37, 27, 0)
s = 171: (0, 55, 30, 57, 55, 53, 94, 144, 48, 22, 69, 0)
s = 172: (0, 95, 42, 55, 44, 73, 114, 85, 32, 33, 41, 0)
s = 173: (0, 66, 36, 84, 79, 65, 104, 88, 63, 53, 85, 0)
s = 174: (0, 47, 39, 45, 94, 85, 141, 139, 55, 24, 30, 0)
s = 175: (0, 58, 45, 39, 55, 82, 107, 120, 34, 45, 34, 0)
s = 176: (0, 69, 54, 55, 36, 53, 169, 73, 51, 37, 45, 0)
s = 177: (0, 47, 72, 42, 67, 43, 200, 65, 42, 33, 49, 0)
s = 178: (0, 73, 30, 45, 87, 36, 80, 64, 27, 44, 39, 0)
s = 179: (0, 67, 69, 43, 57, 39, 89, 102, 42, 38, 35, 0)
s = 180: (0, 38, 35, 63, 32, 62, 95, 131, 53, 29, 30, 0)
s = 181: (0, 71, 39, 50, 52, 75, 121, 79, 33, 37, 56, 0)
s = 182: (0, 63, 29, 26, 81, 58, 118, 94, 21, 36, 46, 0)
s = 183: (0, 67, 46, 60, 93, 48, 95, 139, 47, 45, 52, 0)
s = 184: (0, 63, 50, 31, 69, 63, 180, 94, 41, 42, 45, 0)
s = 185: (0, 80, 41, 55, 34, 76, 128, 56, 25, 52, 42, 0)
s = 186: (0, 67, 47, 80, 61, 46, 208, 88, 34, 41, 58, 0)
s = 187: (0, 54, 28, 42, 78, 35, 230, 90, 43, 44, 79, 0)
s = 188: (0, 63, 36, 26, 75, 44, 103, 106, 34, 41, 36, 0)
s = 189: (0, 94, 42, 60, 83, 67, 88, 69, 49, 52, 29, 0)
s = 190: (0, 107, 64, 39, 60, 73, 147, 89, 27, 38, 33, 0)
s = 191: (0, 84, 42, 49, 44, 33, 103, 76, 67, 31, 39, 0)
s = 192: (0, 45, 35, 41, 63, 83, 130, 68, 36, 35, 37, 0)
s = 193: (0, 55, 63, 46, 67, 63, 159, 139, 54, 49, 37, 0)
s = 194: (0, 38, 36, 54, 79, 42, 81, 91, 62, 62, 46, 0)
s = 195: (0, 49, 34, 72, 93, 42, 166, 92, 23, 55, 77, 0)
s = 196: (0, 56, 51, 70, 81, 91, 144, 142, 55, 45, 42, 0)
s = 197: (0, 58, 42, 48, 94, 29, 172, 95, 31, 43, 33, 0)
s = 198: (0, 47, 42, 37, 60, 79, 140, 96, 32, 27, 26, 0)
s = 199: (0, 40, 33, 65, 73, 43, 149, 111, 34, 51, 27, 0)
s = 200: (0, 82, 31, 54, 50, 80, 145, 76, 60, 42, 52, 0)
------------------------------------------------------------------------
RESOURCE k = 2
s = 1: (0, 44, 17, 40, 23, 28, 61, 32, 23, 7, 25, 0)
s = 2: (0, 69, 32, 22, 11, 71, 42, 47, 27, 6, 19, 0)
s = 3: (0, 56, 30, 26, 24, 30, 31, 28, 38, 7, 15, 0)
s = 4: (0, 58, 25, 17, 10, 45, 25, 77, 23, 11, 26, 0)
s = 5: (0, 32, 20, 22, 19, 26, 46, 34, 30, 9, 20, 0)
s = 6: (0, 34, 24, 46, 11, 33, 38, 45, 29, 5, 19, 0)
s = 7: (0, 33, 13, 21, 15, 39, 37, 59, 32, 4, 20, 0)
s = 8: (0, 45, 29, 32, 14, 27, 37, 42, 29, 5, 14, 0)
s = 9: (0, 53, 18, 25, 13, 38, 36, 54, 29, 6, 12, 0)
s = 10: (0, 41, 20, 28, 22, 52, 24, 53, 32, 7, 26, 0)
s = 11: (0, 40, 25, 22, 13, 40, 58, 43, 35, 8, 32, 0)
s = 12: (0, 44, 31, 17, 11, 32, 35, 58, 25, 6, 22, 0)
s = 13: (0, 68, 20, 20, 27, 46, 50, 53, 36, 6, 23, 0)
s = 14: (0, 39, 36, 23, 21, 29, 38, 67, 37, 4, 31, 0)
s = 15: (0, 63, 35, 25, 16, 51, 29, 49, 17, 5, 38, 0)
s = 16: (0, 31, 40, 25, 28, 37, 43, 30, 23, 8, 22, 0)
s = 17: (0, 52, 18, 32, 13, 37, 40, 38, 25, 4, 18, 0)
s = 18: (0, 37, 14, 26, 26, 40, 23, 24, 20, 6, 24, 0)
s = 19: (0, 58, 16, 24, 17, 34, 22, 68, 30, 6, 25, 0)
s = 20: (0, 48, 28, 33, 22, 57, 60, 32, 30, 6, 11, 0)
s = 21: (0, 46, 21, 18, 17, 25, 26, 49, 51, 5, 17, 0)
s = 22: (0, 43, 34, 17, 24, 23, 32, 33, 45, 7, 21, 0)
s = 23: (0, 81, 27, 19, 11, 36, 35, 35, 22, 8, 17, 0)
s = 24: (0, 63, 16, 23, 22, 37, 34, 31, 24, 5, 21, 0)
s = 25: (0, 38, 19, 29, 10, 30, 33, 36, 28, 8, 19, 0)
s = 26: (0, 46, 24, 20, 15, 36, 35, 47, 22, 5, 17, 0)
s = 27: (0, 53, 22, 35, 16, 53, 40, 25, 34, 4, 32, 0)
s = 28: (0, 74, 22, 36, 12, 33, 47, 51, 17, 7, 22, 0)
s = 29: (0, 51, 30, 24, 19, 30, 38, 25, 25, 7, 17, 0)
s = 30: (0, 50, 26, 34, 16, 39, 55, 36, 34, 6, 26, 0)
s = 31: (0, 36, 17, 31, 22, 35, 50, 31, 20, 6, 24, 0)
s = 32: (0, 47, 18, 25, 19, 38, 48, 39, 22, 5, 22, 0)
s = 33: (0, 43, 21, 22, 15, 42, 66, 46, 21, 7, 29, 0)
s = 34: (0, 43, 16, 19, 20, 38, 30, 45, 31, 8, 16, 0)
s = 35: (0, 48, 26, 34, 25, 40, 42, 38, 33, 4, 28, 0)
s = 36: (0, 82, 42, 24, 12, 41, 33, 58, 34, 5, 36, 0)
s = 37: (0, 55, 27, 42, 17, 36, 37, 39, 41, 7, 28, 0)
s = 38: (0, 81, 22, 27, 11, 44, 53, 55, 20, 7, 14, 0)
s = 39: (0, 48, 17, 19, 12, 43, 34, 30, 35, 7, 29, 0)
s = 40: (0, 38, 20, 33, 12, 36, 42, 51, 35, 9, 28, 0)
s = 41: (0, 55, 36, 38, 23, 31, 55, 40, 27, 4, 16, 0)
s = 42: (0, 70, 17, 27, 19, 26, 49, 26, 28, 4, 22, 0)
s = 43: (0, 66, 31, 26, 14, 34, 37, 45, 34, 6, 18, 0)
s = 44: (0, 46, 25, 27, 17, 48, 34, 43, 21, 5, 28, 0)
s = 45: (0, 49, 19, 17, 18, 36, 42, 51, 27, 7, 29, 0)
s = 46: (0, 62, 36, 26, 12, 47, 36, 28, 20, 5, 16, 0)
s = 47: (0, 57, 25, 18, 22, 39, 29, 63, 25, 7, 30, 0)
s = 48: (0, 49, 25, 30, 11, 22, 41, 27, 24, 8, 15, 0)
s = 49: (0, 68, 15, 38, 21, 36, 54, 42, 26, 6, 12, 0)
s = 50: (0, 101, 24, 26, 17, 38, 29, 56, 24, 5, 16, 0)
s = 51: (0, 78, 21, 23, 11, 45, 42, 33, 48, 7, 23, 0)
s = 52: (0, 91, 28, 23, 17, 49, 24, 44, 23, 6, 25, 0)
s = 53: (0, 45, 15, 15, 18, 19, 31, 36, 27, 8, 18, 0)
s = 54: (0, 47, 23, 36, 14, 60, 24, 47, 39, 10, 19, 0)
s = 55: (0, 58, 24, 42, 18, 33, 38, 40, 17, 7, 17, 0)
s = 56: (0, 58, 20, 17, 24, 36, 45, 36, 31, 6, 15, 0)
s = 57: (0, 74, 32, 29, 14, 25, 40, 29, 29, 7, 23, 0)
s = 58: (0, 33, 34, 16, 15, 22, 29, 30, 23, 5, 20, 0)
s = 59: (0, 76, 25, 26, 21, 37, 44, 53, 30, 4, 15, 0)
s = 60: (0, 36, 26, 38, 20, 55, 30, 57, 29, 6, 28, 0)
s = 61: (0, 44, 26, 36, 12, 32, 69, 35, 35, 7, 21, 0)
s = 62: (0, 66, 32, 21, 20, 31, 39, 26, 28, 7, 17, 0)
s = 63: (0, 52, 23, 27, 16, 31, 59, 30, 25, 6, 31, 0)
s = 64: (0, 67, 25, 19, 21, 34, 43, 30, 27, 5, 16, 0)
s = 65: (0, 55, 22, 20, 13, 28, 31, 46, 30, 9, 27, 0)
s = 66: (0, 73, 23, 32, 13, 22, 60, 45, 28, 7, 32, 0)
s = 67: (0, 41, 33, 41, 16, 33, 24, 32, 29, 5, 36, 0)
s = 68: (0, 50, 19, 24, 16, 22, 52, 25, 23, 6, 15, 0)
s = 69: (0, 98, 16, 28, 10, 44, 31, 60, 26, 7, 17, 0)
s = 70: (0, 49, 27, 18, 17, 22, 52, 59, 30, 4, 17, 0)
s = 71: (0, 59, 25, 41, 18, 36, 54, 36, 36, 6, 15, 0)
s = 72: (0, 71, 16, 29, 19, 30, 55, 33, 26, 6, 28, 0)
s = 73: (0, 67, 23, 21, 12, 42, 51, 58, 47, 4, 28, 0)
s = 74: (0, 68, 25, 20, 13, 23, 43, 45, 19, 4, 15, 0)
s = 75: (0, 41, 23, 39, 15, 35, 34, 29, 28, 6, 23, 0)
s = 76: (0, 87, 21, 31, 11, 27, 26, 63, 15, 4, 32, 0)
s = 77: (0, 44, 26, 29, 14, 25, 56, 43, 35, 5, 34, 0)
s = 78: (0, 37, 16, 17, 12, 29, 35, 57, 32, 11, 22, 0)
s = 79: (0, 74, 37, 30, 14, 30, 32, 32, 22, 8, 29, 0)
s = 80: (0, 65, 17, 36, 15, 35, 43, 68, 18, 9, 26, 0)
s = 81: (0, 56, 30, 26, 14, 38, 55, 35, 31, 8, 16, 0)
s = 82: (0, 50, 31, 28, 18, 39, 48, 29, 25, 10, 19, 0)
s = 83: (0, 61, 25, 25, 14, 24, 36, 48, 36, 8, 13, 0)
s = 84: (0, 47, 27, 40, 21, 24, 42, 25, 33, 6, 18, 0)
s = 85: (0, 64, 25, 45, 20, 39, 56, 32, 26, 6, 12, 0)
s = 86: (0, 45, 18, 31, 25, 33, 39, 45, 29, 7, 24, 0)
s = 87: (0, 51, 23, 32, 16, 28, 62, 37, 22, 5, 18, 0)
s = 88: (0, 85, 31, 35, 20, 30, 30, 43, 30, 4, 14, 0)
s = 89: (0, 52, 16, 27, 23, 33, 37, 28, 18, 9, 22, 0)
s = 90: (0, 48, 15, 30, 24, 34, 56, 45, 40, 4, 16, 0)
s = 91: (0, 71, 15, 25, 11, 28, 32, 44, 33, 6, 14, 0)
s = 92: (0, 34, 32, 27, 20, 57, 35, 34, 39, 7, 33, 0)
s = 93: (0, 46, 21, 34, 20, 27, 57, 34, 29, 8, 12, 0)
s = 94: (0, 60, 24, 24, 17, 46, 36, 56, 28, 6, 32, 0)
s = 95: (0, 59, 31, 39, 22, 33, 24, 35, 48, 6, 24, 0)
s = 96: (0, 60, 25, 20, 26, 31, 51, 47, 24, 9, 24, 0)
s = 97: (0, 82, 15, 39, 14, 38, 34, 25, 28, 4, 30, 0)
s = 98: (0, 71, 30, 23, 13, 51, 32, 41, 23, 5, 16, 0)
s = 99: (0, 51, 26, 27, 15, 46, 23, 39, 21, 10, 43, 0)
s = 100: (0, 59, 20, 45, 14, 28, 41, 59, 28, 6, 25, 0)
s = 101: (0, 46, 23, 23, 15, 24, 56, 40, 49, 5, 13, 0)
s = 102: (0, 94, 28, 29, 26, 31, 35, 38, 36, 11, 21, 0)
s = 103: (0, 38, 26, 33, 12, 44, 48, 44, 39, 6, 20, 0)
s = 104: (0, 35, 24, 21, 11, 63, 41, 32, 26, 9, 32, 0)
s = 105: (0, 49, 29, 24, 12, 36, 37, 37, 25, 6, 15, 0)
s = 106: (0, 69, 17, 19, 24, 36, 34, 26, 31, 7, 28, 0)
s = 107: (0, 61, 24, 30, 13, 48, 36, 31, 35, 5, 14, 0)
s = 108: (0, 54, 28, 33, 17, 64, 60, 51, 19, 6, 16, 0)
s = 109: (0, 48, 24, 34, 24, 39, 43, 40, 21, 9, 14, 0)
s = 110: (0, 65, 36, 37, 20, 46, 32, 28, 18, 6, 25, 0)
s = 111: (0, 71, 23, 21, 16, 66, 34, 33, 18, 6, 21, 0)
s = 112: (0, 51, 19, 29, 19, 44, 26, 33, 40, 9, 27, 0)
s = 113: (0, 33, 22, 24, 15, 40, 29, 44, 16, 5, 14, 0)
s = 114: (0, 54, 38, 35, 18, 47, 39, 57, 24, 7, 27, 0)
s = 115: (0, 55, 21, 17, 13, 36, 56, 38, 14, 9, 17, 0)
s = 116: (0, 49, 26, 23, 21, 55, 45, 48, 21, 8, 16, 0)
s = 117: (0, 40, 21, 41, 20, 31, 33, 40, 23, 5, 12, 0)
s = 118: (0, 61, 17, 29, 10, 40, 58, 32, 41, 9, 20, 0)
s = 119: (0, 65, 14, 24, 11, 28, 29, 43, 33, 6, 13, 0)
s = 120: (0, 34, 17, 24, 12, 42, 22, 33, 29, 6, 13, 0)
s = 121: (0, 44, 44, 16, 18, 41, 43, 54, 23, 6, 22, 0)
s = 122: (0, 60, 19, 36, 20, 32, 48, 47, 24, 6, 29, 0)
s = 123: (0, 71, 24, 30, 26, 56, 46, 30, 16, 7, 19, 0)
s = 124: (0, 38, 13, 33, 13, 23, 42, 53, 22, 6, 30, 0)
s = 125: (0, 48, 25, 33, 13, 52, 27, 39, 25, 6, 30, 0)
s = 126: (0, 79, 17, 17, 21, 28, 29, 39, 17, 6, 18, 0)
s = 127: (0, 50, 20, 30, 17, 43, 44, 43, 31, 5, 23, 0)
s = 128: (0, 45, 23, 34, 22, 40, 42, 49, 18, 8, 20, 0)
s = 129: (0, 32, 20, 36, 23, 50, 35, 54, 35, 7, 13, 0)
s = 130: (0, 64, 14, 50, 14, 41, 35, 55, 29, 6, 14, 0)
s = 131: (0, 49, 34, 23, 12, 40, 77, 39, 27, 4, 16, 0)
s = 132: (0, 66, 25, 33, 18, 42, 30, 41, 36, 6, 28, 0)
s = 133: (0, 66, 27, 19, 14, 48, 69, 30, 22, 6, 23, 0)
s = 134: (0, 47, 29, 36, 22, 30, 26, 31, 26, 6, 24, 0)
s = 135: (0, 64, 25, 22, 14, 39, 54, 36, 26, 7, 29, 0)
s = 136: (0, 73, 27, 40, 26, 35, 26, 51, 32, 4, 22, 0)
s = 137: (0, 54, 23, 28, 16, 32, 41, 69, 28, 10, 37, 0)
s = 138: (0, 56, 20, 31, 14, 46, 25, 27, 31, 7, 18, 0)
s = 139: (0, 92, 24, 32, 12, 39, 24, 31, 21, 7, 22, 0)
s = 140: (0, 58, 22, 18, 13, 36, 24, 44, 33, 8, 25, 0)
s = 141: (0, 68, 25, 17, 25, 43, 40, 31, 27, 5, 18, 0)
s = 142: (0, 54, 19, 40, 17, 43, 44, 48, 34, 6, 22, 0)
s = 143: (0, 55, 37, 22, 10, 40, 55, 46, 31, 7, 14, 0)
s = 144: (0, 34, 28, 27, 19, 40, 45, 32, 22, 7, 21, 0)
s = 145: (0, 94, 14, 18, 23, 29, 43, 56, 23, 7, 13, 0)
s = 146: (0, 85, 20, 30, 14, 36, 45, 57, 37, 6, 17, 0)
s = 147: (0, 47, 19, 18, 18, 38, 27, 56, 19, 5, 26, 0)
s = 148: (0, 50, 15, 24, 15, 20, 41, 58, 24, 7, 22, 0)
s = 149: (0, 45, 22, 37, 12, 32, 32, 59, 32, 7, 22, 0)
s = 150: (0, 85, 28, 31, 16, 25, 51, 36, 31, 9, 21, 0)
s = 151: (0, 36, 25, 32, 20, 28, 45, 33, 22, 9, 20, 0)
s = 152: (0, 55, 30, 36, 23, 40, 34, 42, 23, 8, 15, 0)
s = 153: (0, 83, 22, 27, 14, 24, 45, 40, 34, 8, 16, 0)
s = 154: (0, 45, 31, 33, 12, 27, 28, 29, 26, 7, 18, 0)
s = 155: (0, 37, 31, 36, 13, 46, 50, 39, 16, 6, 35, 0)
s = 156: (0, 59, 21, 26, 11, 29, 44, 36, 22, 6, 21, 0)
s = 157: (0, 57, 20, 16, 12, 42, 48, 55, 25, 9, 14, 0)
s = 158: (0, 52, 33, 21, 13, 49, 26, 57, 29, 7, 26, 0)
s = 159: (0, 43, 21, 38, 15, 43, 44, 31, 47, 5, 34, 0)
s = 160: (0, 40, 30, 39, 16, 41, 23, 46, 26, 7, 24, 0)
s = 161: (0, 60, 29, 18, 12, 43, 37, 32, 21, 10, 28, 0)
s = 162: (0, 79, 18, 43, 9, 27, 54, 43, 42, 6, 28, 0)
s = 163: (0, 52, 34, 29, 20, 36, 31, 56, 17, 10, 22, 0)
s = 164: (0, 32, 25, 27, 21, 22, 39, 39, 29, 6, 27, 0)
s = 165: (0, 42, 29, 30, 20, 30, 40, 47, 26, 7, 18, 0)
s = 166: (0, 43, 20, 25, 26, 52, 41, 59, 24, 4, 13, 0)
s = 167: (0, 35, 31, 22, 22, 30, 29, 33, 47, 7, 16, 0)
s = 168: (0, 62, 19, 35, 19, 39, 44, 51, 34, 9, 11, 0)
s = 169: (0, 67, 23, 25, 24, 33, 50, 32, 37, 6, 21, 0)
s = 170: (0, 71, 30, 23, 11, 26, 35, 59, 45, 6, 14, 0)
s = 171: (0, 49, 18, 33, 15, 34, 30, 63, 34, 4, 35, 0)
s = 172: (0, 85, 24, 32, 12, 47, 36, 37, 23, 5, 21, 0)
s = 173: (0, 59, 21, 49, 22, 42, 33, 39, 44, 8, 43, 0)
s = 174: (0, 42, 23, 27, 25, 55, 44, 61, 38, 4, 15, 0)
s = 175: (0, 51, 26, 23, 15, 53, 34, 53, 24, 7, 17, 0)
s = 176: (0, 61, 31, 32, 10, 34, 53, 32, 35, 6, 23, 0)
s = 177: (0, 41, 41, 25, 18, 28, 63, 29, 30, 5, 25, 0)
s = 178: (0, 65, 17, 27, 23, 23, 25, 28, 19, 7, 20, 0)
s = 179: (0, 60, 40, 25, 16, 25, 28, 45, 29, 6, 18, 0)
s = 180: (0, 33, 20, 37, 9, 40, 30, 58, 37, 5, 15, 0)
s = 181: (0, 63, 22, 30, 14, 48, 38, 35, 23, 6, 28, 0)
s = 182: (0, 56, 17, 15, 22, 37, 37, 41, 15, 6, 23, 0)
s = 183: (0, 60, 26, 35, 25, 31, 30, 61, 33, 7, 26, 0)
s = 184: (0, 56, 29, 18, 19, 41, 57, 41, 28, 7, 23, 0)
s = 185: (0, 71, 24, 32, 9, 49, 40, 25, 18, 8, 21, 0)
s = 186: (0, 60, 27, 47, 17, 30, 65, 39, 23, 7, 29, 0)
s = 187: (0, 48, 16, 25, 21, 22, 72, 39, 30, 7, 40, 0)
s = 188: (0, 56, 21, 15, 20, 28, 32, 47, 24, 7, 18, 0)
s = 189: (0, 83, 24, 35, 22, 43, 28, 30, 34, 8, 15, 0)
s = 190: (0, 95, 37, 23, 16, 47, 46, 39, 19, 6, 17, 0)
s = 191: (0, 75, 24, 29, 12, 21, 32, 33, 47, 5, 20, 0)
s = 192: (0, 40, 20, 24, 17, 54, 41, 30, 25, 6, 19, 0)
s = 193: (0, 49, 36, 27, 18, 41, 50, 61, 37, 8, 19, 0)
s = 194: (0, 34, 21, 32, 21, 27, 26, 40, 43, 10, 23, 0)
s = 195: (0, 43, 20, 42, 25, 27, 52, 40, 16, 9, 39, 0)
s = 196: (0, 50, 29, 41, 22, 58, 45, 62, 38, 7, 21, 0)
s = 197: (0, 51, 24, 28, 25, 19, 54, 42, 22, 7, 17, 0)
s = 198: (0, 42, 24, 22, 16, 51, 44, 42, 22, 4, 13, 0)
s = 199: (0, 36, 19, 38, 20, 28, 47, 49, 24, 8, 14, 0)
s = 200: (0, 73, 18, 32, 14, 51, 46, 34, 42, 7, 26, 0)
************************************************************************
ES/LS-VALUES:
jobnr.   ES(i)    LS(i)
------------------------------------------------------------------------
  0        0        0
  1        0       78
  2        0       58
  3        0       73
  4        7       84
  5        7       81
  6        5       64
  7       20       80
  8       20       89
  9       31       91
 10       20       88
 11       34       95
************************************************************************
BIG-M-VALUES:
M1 = 57, M2 = 321
************************************************************************
